145608
11,92,88,79,56,82,33,25,49,67,18,41,80,98,99,50,81,71,44,24,61,21,85,45,76,5,68,87,12,30,97,105,96,7,29,28,54,4,51,64,39,55,19,15,63,89,16,20,1,32,83,52,6,48,36,38,72,47,84,35,70,53,94,66,10,40,103,37,100,2,77,93,95,59,104,69,17,31,62,74,34,102,60,46,13,101,73,23,57,0,86,43,58,65,9,26,27,75,42,78,90,14,3,8,22,91,11